<?xml version = "1.0" standalone="yes"?>
<!-- This file has been generated by DOcplex version 2.23.222  -->
<CPLEXSolution version="1.0">
 <header
   problemName="CVRP"
   objectiveValue="9779.31"
  />
 <variables>
  <variable name="x_0_2" index="1" value="1.00000"/>
  <variable name="x_0_5" index="4" value="1.00000"/>
  <variable name="x_0_6" index="5" value="1.00000"/>
  <variable name="x_0_7" index="6" value="1.00000"/>
  <variable name="x_0_8" index="7" value="1.00000"/>
  <variable name="x_0_9" index="8" value="1.00000"/>
  <variable name="x_0_10" index="9" value="1.00000"/>
  <variable name="x_1_0" index="13" value="1.00000"/>
  <variable name="x_2_12" index="37" value="1.00000"/>
  <variable name="x_3_4" index="42" value="1.00000"/>
  <variable name="x_4_0" index="52" value="1.00000"/>
  <variable name="x_5_0" index="65" value="1.00000"/>
  <variable name="x_6_11" index="88" value="1.00000"/>
  <variable name="x_7_13" index="103" value="1.00000"/>
  <variable name="x_8_1" index="105" value="1.00000"/>
  <variable name="x_9_0" index="117" value="1.00000"/>
  <variable name="x_10_3" index="133" value="1.00000"/>
  <variable name="x_11_0" index="143" value="1.00000"/>
  <variable name="x_12_0" index="156" value="1.00000"/>
  <variable name="x_13_0" index="169" value="1.00000"/>
  <variable name="u_1" index="182" value="77.00000"/>
  <variable name="u_2" index="183" value="18.00000"/>
  <variable name="u_3" index="184" value="59.00000"/>
  <variable name="u_4" index="185" value="77.00000"/>
  <variable name="u_5" index="186" value="32.00000"/>
  <variable name="u_6" index="187" value="76.00000"/>
  <variable name="u_7" index="188" value="44.00000"/>
  <variable name="u_8" index="189" value="22.00000"/>
  <variable name="u_9" index="190" value="72.00000"/>
  <variable name="u_10" index="191" value="30.00000"/>
  <variable name="u_11" index="192" value="77.00000"/>
  <variable name="u_12" index="193" value="66.00000"/>
  <variable name="u_13" index="194" value="70.00000"/>
 </variables>
</CPLEXSolution>
